c 1 ~  P0_k0 ~ 31
c 1 ~  P0_k1 ~ 32
c 1 ~  P0_k2 ~ 33
c 2 ~  P1_k0 ~ 34
c 2 ~  P1_k1 ~ 35
c 2 ~  P1_k2 ~ 36
c 3 ~  P2_k0 ~ 37
c 3 ~  P2_k1 ~ 38
c 3 ~  P2_k2 ~ 39
c 4 ~  P3_k0 ~ 40
c 4 ~  P3_k1 ~ 41
c 4 ~  P3_k2 ~ 42
c 5 ~  P4_k0 ~ 43
c 5 ~  P4_k1 ~ 44
c 5 ~  P4_k2 ~ 45
c 6 ~  P5_k0 ~ 46
c 6 ~  P5_k1 ~ 47
c 6 ~  P5_k2 ~ 48
p cnf 48 66
31 32 33 0
34 35 36 0
37 38 39 0
40 41 42 0
43 44 45 0
46 47 48 0
-31 -32 0
-31 -33 0
-32 -33 0
-34 -35 0
-34 -36 0
-35 -36 0
-37 -38 0
-37 -39 0
-38 -39 0
-40 -41 0
-40 -42 0
-41 -42 0
-43 -44 0
-43 -45 0
-44 -45 0
-46 -47 0
-46 -48 0
-47 -48 0
-31 -34 0
-32 -35 0
-33 -36 0
-31 -43 0
-32 -44 0
-33 -45 0
-34 -31 0
-35 -32 0
-36 -33 0
-34 -37 0
-35 -38 0
-36 -39 0
-34 -43 0
-35 -44 0
-36 -45 0
-37 -34 0
-38 -35 0
-39 -36 0
-37 -40 0
-38 -41 0
-39 -42 0
-40 -37 0
-41 -38 0
-42 -39 0
-40 -46 0
-41 -47 0
-42 -48 0
-40 -43 0
-41 -44 0
-42 -45 0
-43 -34 0
-44 -35 0
-45 -36 0
-43 -40 0
-44 -41 0
-45 -42 0
-43 -31 0
-44 -32 0
-45 -33 0
-46 -40 0
-47 -41 0
-48 -42 0
